# Solution for model problem_
# Objective value = 1.5662558112174325e+05
x(0_0) 0
x(0_1) 0
x(0_2) 0
x(0_3) 0
x(0_4) 0
x(0_5) 0
x(0_6) 0
x(0_7) 0
x(0_8) 0
x(0_9) 0
x(0_10) 0
x(0_11) 1
x(0_12) 0
x(0_13) 0
x(0_14) 0
x(0_15) 0
x(0_16) 0
x(0_17) 0
x(1_18) 0
x(1_19) 1
x(1_20) 0
x(1_21) 0
x(1_22) 0
x(1_23) 0
x(1_24) 0
x(1_25) 0
x(1_26) 0
x(1_27) 0
x(1_28) 0
x(1_29) 0
x(1_30) 0
x(1_31) 0
x(1_32) 0
x(1_33) 0
x(2_34) 0
x(2_35) 0
x(2_36) 0
x(2_37) 0
x(2_38) 0
x(2_39) 0
x(2_40) 0
x(2_41) 0
x(2_42) 0
x(2_43) 0
x(2_44) 0
x(2_45) 1
x(2_46) 0
x(2_47) 0
x(2_48) 0
x(3_49) 0
x(3_50) 0
x(3_51) 1
x(3_52) 0
x(3_53) 0
x(3_54) 0
x(3_55) 0
x(3_56) 0
x(3_57) 0
x(3_58) 0
x(3_59) 0
x(3_60) 0
x(3_61) 0
x(3_62) 0
x(3_63) 0
x(3_64) 0
x(3_65) 0
x(3_66) 0
x(3_67) 0
x(3_68) 0
x(4_69) 0
x(4_70) 0
x(4_71) 0
x(4_72) 0
x(4_73) 0
x(4_74) 0
x(4_75) 0
x(4_76) 1
x(4_77) 0
x(4_78) 0
x(4_79) 0
x(4_80) 0
x(4_81) 0
x(4_82) 0
x(4_83) 0
x(4_84) 0
x(4_85) 0
x(4_86) 0
x(4_87) 0
x(4_88) 0
x(5_89) 0
x(5_90) 1
x(5_91) 0
x(5_92) 0
x(5_93) 0
x(5_94) 0
x(5_95) 0
x(5_96) 0
x(5_97) 0
x(5_98) 0
x(6_99) 0
x(6_100) 0
x(6_101) 0
x(6_102) 0
x(6_103) 0
x(6_104) 0
x(6_105) 0
x(6_106) 1
x(6_107) 0
x(6_108) 0
x(6_109) 0
x(7_110) 0
x(7_111) 0
x(7_112) 0
x(7_113) 0
x(7_114) 0
x(7_115) 1
x(7_116) 0
x(7_117) 0
x(7_118) 0
x(7_119) 0
x(7_120) 0
x(7_121) 0
x(7_122) 0
x(7_123) 0
x(7_124) 0
x(7_125) 0
x(7_126) 0
x(7_127) 0
x(8_128) 0
x(8_129) 0
x(8_130) 0
x(8_131) 0
x(8_132) 0
x(8_133) 0
x(8_134) 0
x(8_135) 0
x(8_136) 0
x(8_137) 0
x(8_138) 0
x(8_139) 0
x(8_140) 0
x(8_141) 0
x(8_142) 0
x(8_143) 0
x(8_144) 0
x(8_145) 1
x(9_146) 0
x(9_147) 1
x(9_148) 0
x(9_149) 0
x(9_150) 0
x(9_151) 0
x(9_152) 0
x(9_153) 0
x(9_154) 0
x(9_155) 0
x(9_156) 0
x(9_157) 0
x(9_158) 0
x(9_159) 0
x(9_160) 0
x(9_161) 0
x(10_162) 0
x(10_163) 0
x(10_164) 0
x(10_165) 0
x(10_166) 0
x(10_167) 0
x(10_168) 0
x(10_169) 0
x(10_170) 0
x(10_171) 0
x(10_172) 0
x(10_173) 0
x(10_174) 1
x(11_175) 0
x(11_176) 0
x(11_177) 0
x(11_178) 0
x(11_179) 0
x(11_180) 0
x(11_181) 0
x(11_182) 0
x(11_183) 1
x(11_184) 0
x(11_185) 0
x(11_186) 0
x(11_187) 0
x(11_188) 0
x(11_189) 0
x(12_190) 0
x(12_191) 0
x(12_192) 1
x(12_193) 0
x(12_194) 0
x(12_195) 0
x(12_196) 0
x(12_197) 0
x(12_198) 0
x(12_199) 0
x(12_200) 0
x(13_201) 0
x(13_202) 0
x(13_203) 0
x(13_204) 0
x(13_205) 0
x(13_206) 0
x(13_207) 0
x(13_208) 0
x(13_209) 0
x(13_210) 0
x(13_211) 0
x(13_212) 0
x(13_213) 0
x(13_214) 0
x(13_215) 0
x(13_216) 0
x(13_217) 0
x(13_218) 0
x(13_219) 1
x(14_220) 0
x(14_221) 0
x(14_222) 1
x(14_223) 0
x(14_224) 0
x(14_225) 0
x(14_226) 0
x(14_227) 0
x(14_228) 0
x(14_229) 0
x(14_230) 0
x(14_231) 0
x(14_232) 0
x(14_233) 0
x(14_234) 0
x(14_235) 0
x(14_236) 0
x(15_237) 0
x(15_238) 0
x(15_239) 0
x(15_240) 0
x(15_241) 0
x(15_242) 0
x(15_243) 0
x(15_244) 0
x(15_245) 1
x(15_246) 0
x(16_247) 0
x(16_248) 0
x(16_249) 0
x(16_250) 0
x(16_251) 1
x(16_252) 0
x(16_253) 0
x(16_254) 0
x(16_255) 0
x(16_256) 0
x(16_257) 0
x(16_258) 0
x(17_259) 0
x(17_260) 0
x(17_261) 0
x(17_262) 1
x(17_263) 0
x(17_264) 0
x(17_265) 0
x(17_266) 0
x(17_267) 0
x(17_268) 0
x(17_269) 0
x(18_270) 0
x(18_271) 0
x(18_272) 0
x(18_273) 0
x(18_274) 0
x(18_275) 0
x(18_276) 0
x(18_277) 1
x(18_278) 0
x(18_279) 0
x(18_280) 0
x(19_281) 0
x(19_282) 0
x(19_283) 0
x(19_284) 0
x(19_285) 0
x(19_286) 0
x(19_287) 0
x(19_288) 0
x(19_289) 0
x(19_290) 0
x(19_291) 0
x(19_292) 1
x(19_293) 0
x(19_294) 0
x(19_295) 0
x(19_296) 0
x(20_297) 0
x(20_298) 0
x(20_299) 0
x(20_300) 0
x(20_301) 0
x(20_302) 0
x(20_303) 0
x(20_304) 0
x(20_305) 0
x(20_306) 1
x(20_307) 0
x(20_308) 0
x(20_309) 0
x(20_310) 0
x(20_311) 0
x(20_312) 0
x(20_313) 0
x(20_314) 0
x(20_315) 0
x(21_316) 0
x(21_317) 1
x(21_318) 0
x(21_319) 0
x(21_320) 0
x(21_321) 0
x(21_322) 0
x(21_323) 0
x(21_324) 0
x(21_325) 0
x(22_326) 0
x(22_327) 0
x(22_328) 0
x(22_329) 0
x(22_330) 0
x(22_331) 0
x(22_332) 0
x(22_333) 0
x(22_334) 0
x(22_335) 0
x(22_336) 0
x(22_337) 0
x(22_338) 0
x(22_339) 0
x(22_340) 0
x(22_341) 0
x(22_342) 1
x(22_343) 0
x(22_344) 0
x(22_345) 0
x(23_346) 1
x(23_347) 0
x(23_348) 0
x(23_349) 0
x(23_350) 0
x(23_351) 0
x(23_352) 0
x(23_353) 0
x(23_354) 0
x(23_355) 0
x(24_356) 0
x(24_357) 0
x(24_358) 0
x(24_359) 0
x(24_360) 0
x(24_361) 0
x(24_362) 0
x(24_363) 0
x(24_364) 0
x(24_365) 0
x(24_366) 0
x(24_367) 0
x(24_368) 1
x(25_369) 0
x(25_370) 0
x(25_371) 0
x(25_372) 0
x(25_373) 0
x(25_374) 1
x(25_375) 0
x(25_376) 0
x(25_377) 0
x(25_378) 0
x(25_379) 0
x(25_380) 0
x(25_381) 0
x(25_382) 0
x(26_383) 1
x(26_384) 0
x(26_385) 0
x(26_386) 0
x(26_387) 0
x(26_388) 0
x(26_389) 0
x(26_390) 0
x(26_391) 0
x(26_392) 0
x(26_393) 0
x(27_394) 0
x(27_395) 0
x(27_396) 0
x(27_397) 0
x(27_398) 0
x(27_399) 0
x(27_400) 0
x(27_401) 0
x(27_402) 0
x(27_403) 0
x(27_404) 1
x(27_405) 0
x(27_406) 0
x(28_407) 0
x(28_408) 0
x(28_409) 1
x(28_410) 0
x(28_411) 0
x(28_412) 0
x(28_413) 0
x(28_414) 0
x(28_415) 0
x(28_416) 0
x(28_417) 0
x(28_418) 0
x(28_419) 0
x(28_420) 0
x(28_421) 0
x(28_422) 0
x(28_423) 0
x(29_424) 0
x(29_425) 0
x(29_426) 0
x(29_427) 0
x(29_428) 0
x(29_429) 0
x(29_430) 0
x(29_431) 0
x(29_432) 0
x(29_433) 0
x(29_434) 1
x(29_435) 0
x(29_436) 0
x(29_437) 0
x(29_438) 0
x(29_439) 0
x(29_440) 0
x(29_441) 0
x(29_442) 0
x(30_443) 0
x(30_444) 0
x(30_445) 1
x(30_446) 0
x(30_447) 0
x(30_448) 0
x(30_449) 0
x(30_450) 0
x(30_451) 0
x(30_452) 0
x(30_453) 0
x(31_454) 0
x(31_455) 0
x(31_456) 0
x(31_457) 0
x(31_458) 0
x(31_459) 0
x(31_460) 0
x(31_461) 0
x(31_462) 0
x(31_463) 0
x(31_464) 0
x(31_465) 0
x(31_466) 1
x(31_467) 0
x(31_468) 0
x(31_469) 0
x(32_470) 0
x(32_471) 0
x(32_472) 0
x(32_473) 0
x(32_474) 0
x(32_475) 0
x(32_476) 0
x(32_477) 0
x(32_478) 0
x(32_479) 1
x(32_480) 0
x(32_481) 0
x(32_482) 0
x(32_483) 0
x(32_484) 0
x(33_485) 0
x(33_486) 0
x(33_487) 0
x(33_488) 1
x(33_489) 0
x(33_490) 0
x(33_491) 0
x(33_492) 0
x(33_493) 0
x(33_494) 0
x(33_495) 0
x(33_496) 0
x(33_497) 0
x(33_498) 0
x(33_499) 0
x(33_500) 0
x(33_501) 0
x(33_502) 0
x(33_503) 0
x(34_504) 0
x(34_505) 0
x(34_506) 0
x(34_507) 0
x(34_508) 0
x(34_509) 0
x(34_510) 1
x(34_511) 0
x(34_512) 0
x(34_513) 0
x(34_514) 0
x(34_515) 0
x(34_516) 0
x(34_517) 0
x(34_518) 0
x(34_519) 0
x(35_520) 0
x(35_521) 0
x(35_522) 0
x(35_523) 1
x(35_524) 0
x(35_525) 0
x(35_526) 0
x(35_527) 0
x(35_528) 0
x(35_529) 0
x(35_530) 0
x(35_531) 0
x(36_532) 0
x(36_533) 0
x(36_534) 0
x(36_535) 0
x(36_536) 0
x(36_537) 0
x(36_538) 0
x(36_539) 1
x(36_540) 0
x(36_541) 0
x(36_542) 0
x(36_543) 0
x(36_544) 0
x(36_545) 0
x(36_546) 0
x(37_547) 1
x(37_548) 0
x(37_549) 0
x(37_550) 0
x(37_551) 0
x(37_552) 0
x(37_553) 0
x(37_554) 0
x(37_555) 0
x(37_556) 0
x(38_557) 0
x(38_558) 0
x(38_559) 0
x(38_560) 0
x(38_561) 1
x(38_562) 0
x(38_563) 0
x(38_564) 0
x(38_565) 0
x(38_566) 0
x(38_567) 0
x(38_568) 0
x(38_569) 0
x(38_570) 0
x(38_571) 0
x(38_572) 0
x(38_573) 0
x(39_574) 0
x(39_575) 0
x(39_576) 0
x(39_577) 0
x(39_578) 0
x(39_579) 0
x(39_580) 0
x(39_581) 1
x(39_582) 0
x(39_583) 0
x(39_584) 0
x(39_585) 0
x(39_586) 0
x(40_587) 0
x(40_588) 0
x(40_589) 0
x(40_590) 0
x(40_591) 0
x(40_592) 0
x(40_593) 0
x(40_594) 0
x(40_595) 0
x(40_596) 0
x(40_597) 0
x(40_598) 1
x(40_599) 0
x(40_600) 0
x(40_601) 0
x(40_602) 0
x(41_603) 0
x(41_604) 0
x(41_605) 0
x(41_606) 0
x(41_607) 0
x(41_608) 0
x(41_609) 0
x(41_610) 1
x(41_611) 0
x(41_612) 0
x(41_613) 0
x(41_614) 0
x(41_615) 0
x(41_616) 0
x(41_617) 0
x(41_618) 0
x(41_619) 0
x(42_620) 0
x(42_621) 0
x(42_622) 1
x(42_623) 0
x(42_624) 0
x(42_625) 0
x(42_626) 0
x(42_627) 0
x(42_628) 0
x(42_629) 0
x(42_630) 0
x(42_631) 0
x(43_632) 0
x(43_633) 0
x(43_634) 0
x(43_635) 0
x(43_636) 0
x(43_637) 1
x(43_638) 0
x(43_639) 0
x(43_640) 0
x(43_641) 0
x(43_642) 0
x(43_643) 0
x(43_644) 0
x(43_645) 0
x(43_646) 0
x(43_647) 0
x(43_648) 0
x(44_649) 0
x(44_650) 1
x(44_651) 0
x(44_652) 0
x(44_653) 0
x(44_654) 0
x(44_655) 0
x(44_656) 0
x(44_657) 0
x(44_658) 0
x(44_659) 0
x(44_660) 0
x(44_661) 0
x(45_662) 0
x(45_663) 0
x(45_664) 0
x(45_665) 0
x(45_666) 0
x(45_667) 0
x(45_668) 0
x(45_669) 0
x(45_670) 0
x(45_671) 0
x(45_672) 0
x(45_673) 0
x(45_674) 0
x(45_675) 0
x(45_676) 0
x(45_677) 0
x(45_678) 0
x(45_679) 0
x(45_680) 0
x(45_681) 1
x(46_682) 1
x(46_683) 0
x(46_684) 0
x(46_685) 0
x(46_686) 0
x(46_687) 0
x(46_688) 0
x(46_689) 0
x(46_690) 0
x(46_691) 0
x(46_692) 0
x(47_693) 0
x(47_694) 0
x(47_695) 0
x(47_696) 0
x(47_697) 1
x(47_698) 0
x(47_699) 0
x(47_700) 0
x(47_701) 0
x(47_702) 0
x(47_703) 0
x(48_704) 0
x(48_705) 0
x(48_706) 0
x(48_707) 0
x(48_708) 0
x(48_709) 0
x(48_710) 0
x(48_711) 0
x(48_712) 0
x(48_713) 0
x(48_714) 0
x(48_715) 0
x(48_716) 0
x(48_717) 0
x(48_718) 1
x(48_719) 0
x(48_720) 0
x(49_721) 0
x(49_722) 0
x(49_723) 0
x(49_724) 0
x(49_725) 1
x(49_726) 0
x(49_727) 0
x(49_728) 0
x(49_729) 0
x(49_730) 0
x(50_731) 0
x(50_732) 0
x(50_733) 0
x(50_734) 0
x(50_735) 0
x(50_736) 1
x(50_737) 0
x(50_738) 0
x(50_739) 0
x(50_740) 0
x(50_741) 0
x(50_742) 0
x(50_743) 0
x(50_744) 0
x(50_745) 0
x(50_746) 0
x(51_747) 1
x(51_748) 0
x(51_749) 0
x(51_750) 0
x(51_751) 0
x(51_752) 0
x(51_753) 0
x(51_754) 0
x(51_755) 0
x(51_756) 0
x(51_757) 0
x(51_758) 0
x(51_759) 0
x(51_760) 0
x(51_761) 0
x(51_762) 0
x(51_763) 0
x(52_764) 0
x(52_765) 0
x(52_766) 0
x(52_767) 0
x(52_768) 0
x(52_769) 0
x(52_770) 0
x(52_771) 0
x(52_772) 1
x(52_773) 0
x(52_774) 0
x(52_775) 0
x(53_776) 1
x(53_777) 0
x(53_778) 0
x(53_779) 0
x(53_780) 0
x(53_781) 0
x(53_782) 0
x(53_783) 0
x(53_784) 0
x(53_785) 0
x(53_786) 0
x(53_787) 0
x(53_788) 0
x(53_789) 0
x(53_790) 0
x(53_791) 0
x(53_792) 0
x(53_793) 0
x(53_794) 0
x(54_795) 1
x(54_796) 0
x(54_797) 0
x(54_798) 0
x(54_799) 0
x(54_800) 0
x(54_801) 0
x(54_802) 0
x(54_803) 0
x(54_804) 0
x(54_805) 0
x(54_806) 0
x(54_807) 0
x(54_808) 0
x(54_809) 0
x(55_810) 0
x(55_811) 0
x(55_812) 0
x(55_813) 0
x(55_814) 0
x(55_815) 0
x(55_816) 0
x(55_817) 0
x(55_818) 0
x(55_819) 1
x(55_820) 0
x(55_821) 0
x(55_822) 0
x(55_823) 0
x(55_824) 0
x(55_825) 0
x(55_826) 0
x(56_827) 0
x(56_828) 0
x(56_829) 0
x(56_830) 0
x(56_831) 0
x(56_832) 0
x(56_833) 0
x(56_834) 1
x(56_835) 0
x(56_836) 0
x(57_837) 0
x(57_838) 0
x(57_839) 1
x(57_840) 0
x(57_841) 0
x(57_842) 0
x(57_843) 0
x(57_844) 0
x(57_845) 0
x(57_846) 0
x(58_847) 0
x(58_848) 0
x(58_849) 0
x(58_850) 0
x(58_851) 0
x(58_852) 0
x(58_853) 0
x(58_854) 0
x(58_855) 0
x(58_856) 0
x(58_857) 0
x(58_858) 0
x(58_859) 1
x(58_860) 0
x(58_861) 0
x(59_862) 1
x(59_863) 0
x(59_864) 0
x(59_865) 0
x(59_866) 0
x(59_867) 0
x(59_868) 0
x(59_869) 0
x(59_870) 0
x(59_871) 0
x(59_872) 0
x(59_873) 0
x(59_874) 0
x(59_875) 0
x(59_876) 0
x(59_877) 0
x(59_878) 0
x(60_879) 0
x(60_880) 0
x(60_881) 0
x(60_882) 0
x(60_883) 0
x(60_884) 0
x(60_885) 0
x(60_886) 0
x(60_887) 0
x(60_888) 0
x(60_889) 0
x(60_890) 1
x(60_891) 0
x(60_892) 0
x(60_893) 0
x(60_894) 0
x(60_895) 0
x(60_896) 0
x(61_897) 1
x(61_898) 0
x(61_899) 0
x(61_900) 0
x(61_901) 0
x(61_902) 0
x(61_903) 0
x(61_904) 0
x(61_905) 0
x(61_906) 0
x(61_907) 0
x(61_908) 0
x(61_909) 0
x(62_910) 0
x(62_911) 0
x(62_912) 0
x(62_913) 0
x(62_914) 0
x(62_915) 0
x(62_916) 0
x(62_917) 0
x(62_918) 1
x(62_919) 0
x(62_920) 0
x(62_921) 0
x(62_922) 0
x(63_923) 0
x(63_924) 0
x(63_925) 0
x(63_926) 0
x(63_927) 0
x(63_928) 0
x(63_929) 1
x(63_930) 0
x(63_931) 0
x(63_932) 0
x(63_933) 0
x(64_934) 1
x(64_935) 0
x(64_936) 0
x(64_937) 0
x(64_938) 0
x(64_939) 0
x(64_940) 0
x(64_941) 0
x(64_942) 0
x(64_943) 0
x(64_944) 0
x(64_945) 0
x(64_946) 0
x(64_947) 0
x(64_948) 0
x(65_949) 0
x(65_950) 0
x(65_951) 0
x(65_952) 0
x(65_953) 0
x(65_954) 0
x(65_955) 0
x(65_956) 0
x(65_957) 0
x(65_958) 0
x(65_959) 1
x(65_960) 0
x(65_961) 0
x(65_962) 0
x(65_963) 0
x(65_964) 0
x(65_965) 0
x(65_966) 0
x(66_967) 0
x(66_968) 0
x(66_969) 0
x(66_970) 0
x(66_971) 0
x(66_972) 0
x(66_973) 0
x(66_974) 0
x(66_975) 0
x(66_976) 0
x(66_977) 0
x(66_978) 1
x(66_979) 0
x(66_980) 0
x(66_981) 0
x(66_982) 0
x(67_983) 0
x(67_984) 0
x(67_985) 0
x(67_986) 0
x(67_987) 0
x(67_988) 0
x(67_989) 0
x(67_990) 0
x(67_991) 0
x(67_992) 0
x(67_993) 0
x(67_994) 0
x(67_995) 0
x(67_996) 1
x(67_997) 0
x(67_998) 0
x(67_999) 0
x(67_1000) 0
x(67_1001) 0
x(68_1002) 0
x(68_1003) 0
x(68_1004) 0
x(68_1005) 0
x(68_1006) 0
x(68_1007) 0
x(68_1008) 0
x(68_1009) 0
x(68_1010) 1
x(68_1011) 0
x(68_1012) 0
x(68_1013) 0
x(68_1014) 0
x(68_1015) 0
x(69_1016) 0
x(69_1017) 0
x(69_1018) 0
x(69_1019) 1
x(69_1020) 0
x(69_1021) 0
x(69_1022) 0
x(69_1023) 0
x(69_1024) 0
x(69_1025) 0
x(69_1026) 0
x(69_1027) 0
x(70_1028) 0
x(70_1029) 0
x(70_1030) 0
x(70_1031) 0
x(70_1032) 0
x(70_1033) 0
x(70_1034) 0
x(70_1035) 0
x(70_1036) 0
x(70_1037) 0
x(70_1038) 1
x(70_1039) 0
x(70_1040) 0
x(70_1041) 0
x(70_1042) 0
x(70_1043) 0
x(70_1044) 0
x(71_1045) 0
x(71_1046) 0
x(71_1047) 0
x(71_1048) 0
x(71_1049) 1
x(71_1050) 0
x(71_1051) 0
x(71_1052) 0
x(71_1053) 0
x(71_1054) 0
x(71_1055) 0
x(71_1056) 0
x(71_1057) 0
x(71_1058) 0
x(71_1059) 0
x(71_1060) 0
x(71_1061) 0
x(71_1062) 0
x(72_1063) 0
x(72_1064) 0
x(72_1065) 0
x(72_1066) 0
x(72_1067) 0
x(72_1068) 0
x(72_1069) 0
x(72_1070) 0
x(72_1071) 0
x(72_1072) 0
x(72_1073) 0
x(72_1074) 0
x(72_1075) 1
x(72_1076) 0
x(72_1077) 0
x(72_1078) 0
x_1_0 0
s_1_0 2.2182466442754958e+00
z_1_0 2.2182466442754957e-05
x_1_1 0
s_1_1 8.7351178663084283e-01
z_1_1 8.7351178663084291e-06
x_1_2 0
s_1_2 1.9421368138864636e+00
z_1_2 1.9421368138864637e-05
x_1_3 0
s_1_3 1.3130043957789894e+00
z_1_3 1.3130043957789894e-05
x_1_4 0
s_1_4 2.08902585611213
z_1_4 2.08902585611213e-05
x_1_5 3.2489792864653282e+02
s_1_5 0
z_1_5 0
x_1_6 3.2471931846532971e+02
s_1_6 0
z_1_6 0
x_1_7 0
s_1_7 2.1670979168266058e+00
z_1_7 2.1670979168266058e-05
x_1_8 0
s_1_8 6.0832201398443431e-01
z_1_8 6.0832201398443427e-06
x_1_9 0
s_1_9 1.6538502952025738e+00
z_1_9 1.6538502952025737e-05
x_1_10 0
s_1_10 1.1104894266463816e+00
z_1_10 1.1104894266463817e-05
x_1_11 0
s_1_11 1.8158966584596783e+00
z_1_11 1.8158966584596784e-05
x_1_12 3.2477149520767853e+02
s_1_12 0
z_1_12 0
x_1_13 3.2172492424119264e+02
s_1_13 0
z_1_13 0
x_1_14 4.9998995269279985e+04
s_1_14 5.0001004730720015e+04
z_1_14 5.0001004730720011e-01
x_1_15 0
s_1_15 2.4503270988934673e+00
z_1_15 2.4503270988934674e-05
x_1_16 0
s_1_16 1.6470769133302383e+00
z_1_16 1.6470769133302383e-05
x_1_17 4.9999256947143265e+04
s_1_17 5.0000743052856735e+04
z_1_17 5.0000743052856733e-01
x_1_18 3.2083686246722937e+02
s_1_18 0
z_1_18 0
x_1_19 3.2376265316084027e+02
s_1_19 0
z_1_19 0
x_1_20 3.2503637435717974e+02
s_1_20 0
z_1_20 0
x_1_21 3.2319261997938156e+02
s_1_21 0
z_1_21 0
x_1_22 3.2343488713959232e+02
s_1_22 0
z_1_22 0
x_1_23 3.2490442707296461e+02
s_1_23 0
z_1_23 0
x_1_24 0
s_1_24 1.1295126421027817e+00
z_1_24 1.1295126421027817e-05
x_1_25 0
s_1_25 1.67297129976032
z_1_25 1.67297129976032e-05
x_1_26 0
s_1_26 1.6810541505110450e+00
z_1_26 1.6810541505110449e-05
x_1_27 0
s_1_27 1.6959839417249896e+00
z_1_27 1.6959839417249897e-05
x_1_28 0
s_1_28 1.49783391164965
z_1_28 1.49783391164965e-05
x_1_29 3.2111416660086252e+02
s_1_29 0
z_1_29 0
x_1_30 0
s_1_30 1.0963896905595902e+00
z_1_30 1.0963896905595902e-05
x_1_31 4.9999375828549790e+04
s_1_31 5.0000624171450210e+04
z_1_31 5.0000624171450214e-01
x_1_32 320.491105414927
s_1_32 0
z_1_32 0
x_1_33 0
s_1_33 1.2161873299191939e+00
z_1_33 1.2161873299191938e-05
x_1_34 0
s_1_34 9.5025302411522716e-01
z_1_34 9.5025302411522719e-06
x_1_35 3.2334712602337822e+02
s_1_35 0
z_1_35 0
x_1_36 0
s_1_36 1.2484673227008898e+00
z_1_36 1.2484673227008898e-05
x_1_37 3.2305018301121891e+02
s_1_37 0
z_1_37 0
x_1_38 0
s_1_38 1.6999286256177584e+00
z_1_38 1.6999286256177583e-05
x_1_39 3.2517722891550511e+02
s_1_39 0
z_1_39 0
x_1_40 0
s_1_40 2.4142925791529706e+00
z_1_40 2.4142925791529705e-05
x_1_41 0
s_1_41 1.5686359144456219e+00
z_1_41 1.5686359144456218e-05
x_1_42 0
s_1_42 1.8150412924587727e+00
z_1_42 1.8150412924587725e-05
x_1_43 0
s_1_43 1.8866626521339640e+00
z_1_43 1.8866626521339639e-05
x_1_44 3.2160707867424935e+02
s_1_44 0
z_1_44 0
x_1_45 3.2516707776300609e+02
s_1_45 0
z_1_45 0
x_1_46 0
s_1_46 9.9463138934515882e-01
z_1_46 9.9463138934515883e-06
x_1_47 0
s_1_47 1.1758168290689355e+00
z_1_47 1.1758168290689356e-05
x_1_48 0
s_1_48 1.5537362420000136e+00
z_1_48 1.5537362420000136e-05
x_1_49 4.9998888207600015e+04
s_1_49 5.0001111792399985e+04
z_1_49 5.0001111792399988e-01
x_1_50 4.9999411396726544e+04
s_1_50 5.0000588603273456e+04
z_1_50 5.0000588603273455e-01
x_1_51 0
s_1_51 1.6337445923127234e+00
z_1_51 1.6337445923127233e-05
x_1_52 3.2301187497656792e+02
s_1_52 0
z_1_52 0
x_1_53 3.2202153750509024e+02
s_1_53 0
z_1_53 0
x_1_54 0
s_1_54 1.1530412971042097e+00
z_1_54 1.1530412971042096e-05
x_1_55 3.2222223207540810e+02
s_1_55 0
z_1_55 0
x_1_56 0
s_1_56 2.08350369008258
z_1_56 2.08350369008258e-05
x_1_57 0
s_1_57 1.7539055390552676e+00
z_1_57 1.7539055390552675e-05
x_1_58 3.2284495781350415e+02
s_1_58 0
z_1_58 0
x_1_59 3.2310477576311678e+02
s_1_59 0
z_1_59 0
x_1_60 3.2377092612115666e+02
s_1_60 0
z_1_60 0
x_1_61 4.9999087160553288e+04
s_1_61 5.0000912839446712e+04
z_1_61 5.0000912839446710e-01
x_1_62 4.9998934142967104e+04
s_1_62 5.0001065857032896e+04
z_1_62 0.500010658570329
x_1_63 3.2386530566681176e+02
s_1_63 0
z_1_63 0
x_1_64 4.9999113164181646e+04
s_1_64 5.0000886835818354e+04
z_1_64 5.0000886835818359e-01
x_1_65 3.2512751159659820e+02
s_1_65 0
z_1_65 0
x_1_66 0
s_1_66 1.2149091690080240e+00
z_1_66 1.2149091690080240e-05
x_1_67 0
s_1_67 1.7135019793058746e+00
z_1_67 1.7135019793058747e-05
x_1_68 3.2225784076424316e+02
s_1_68 0
z_1_68 0
x_1_69 3.2123539768718183e+02
s_1_69 0
z_1_69 0
x_1_70 3.2526248044008389e+02
s_1_70 0
z_1_70 0
x_1_71 3.2177052453532815e+02
s_1_71 0
z_1_71 0
x_1_72 3.2285683563339990e+02
s_1_72 0
z_1_72 0
x_1_73 3.2236751877050847e+02
s_1_73 0
z_1_73 0
x_1_74 0
s_1_74 1.6947653473762330e+00
z_1_74 1.6947653473762331e-05
x_1_75 3.2451931610889733e+02
s_1_75 0
z_1_75 0
x_1_76 4.9999193802148468e+04
s_1_76 5.0000806197851532e+04
z_1_76 5.0000806197851533e-01
x_1_77 0
s_1_77 1.4208523364213761e+00
z_1_77 1.4208523364213762e-05
x_1_78 3.2207226910069585e+02
s_1_78 0
z_1_78 0
x_1_79 0
s_1_79 2.0217031031934312e+00
z_1_79 2.0217031031934312e-05
x_1_80 3.2277023152261972e+02
s_1_80 0
z_1_80 0
x_1_81 4.9999113800891610e+04
s_1_81 5.0000886199108390e+04
z_1_81 5.0000886199108385e-01
x_1_82 3.2473250848217867e+02
s_1_82 0
z_1_82 0
x_1_83 4.9999247394121543e+04
s_1_83 5.0000752605878457e+04
z_1_83 5.0000752605878462e-01
x_1_84 3.2235685205308255e+02
s_1_84 0
z_1_84 0
x_1_85 3.2126253748312593e+02
s_1_85 0
z_1_85 0
x_1_86 0
s_1_86 1.4063638277584687e+00
z_1_86 1.4063638277584687e-05
x_1_87 3.2336682511866093e+02
s_1_87 0
z_1_87 0
x_1_88 0
s_1_88 8.9772509469185024e-01
z_1_88 8.9772509469185023e-06
x_1_89 3.2347832210455090e+02
s_1_89 0
z_1_89 0
x_1_90 4.9999300737826037e+04
s_1_90 5.0000699262173963e+04
z_1_90 5.0000699262173964e-01
x_1_91 3.2386178036502679e+02
s_1_91 0
z_1_91 0
x_1_92 0
s_1_92 1.8444622165989131e+00
z_1_92 1.8444622165989130e-05
x_1_93 0
s_1_93 1.9104692012697342e+00
z_1_93 1.9104692012697341e-05
x_1_94 3.2426652554329485e+02
s_1_94 0
z_1_94 0
x_1_95 3.2087435509939678e+02
s_1_95 0
z_1_95 0
x_1_96 0
s_1_96 1.8914919029048178e+00
z_1_96 1.8914919029048178e-05
x_1_97 3.2109693018347025e+02
s_1_97 0
z_1_97 0
x_1_98 3.2133421870693564e+02
s_1_98 0
z_1_98 0
x_1_99 0
s_1_99 2.0168440021807328e+00
z_1_99 2.0168440021807328e-05
x_1_100 0
s_1_100 1.1378520778962411e+00
z_1_100 1.1378520778962411e-05
x_1_101 0
s_1_101 1.01157212437829
z_1_101 1.01157212437829e-05
x_1_102 3.2076206751447171e+02
s_1_102 0
z_1_102 0
x_1_103 3.2034689763630740e+02
s_1_103 0
z_1_103 0
x_1_104 3.2087165849981830e+02
s_1_104 0
z_1_104 0
x_1_105 3.2162766837951494e+02
s_1_105 0
z_1_105 0
x_1_106 0
s_1_106 2.0139900346694048e+00
z_1_106 2.0139900346694048e-05
x_1_107 3.2210339921666309e+02
s_1_107 0
z_1_107 0
x_1_108 3.2408299239445478e+02
s_1_108 0
z_1_108 0
x_1_109 321.422381590819
s_1_109 0
z_1_109 0
x_1_110 3.2240832967474125e+02
s_1_110 0
z_1_110 0
x_1_111 3.2492827486619353e+02
s_1_111 0
z_1_111 0
x_1_112 0
s_1_112 9.3471256852353690e-01
z_1_112 9.3471256852353690e-06
x_1_113 3.2438259321474470e+02
s_1_113 0
z_1_113 0
x_1_114 0
s_1_114 1.5431014237692580e+00
z_1_114 1.5431014237692580e-05
x_1_115 3.2519727724231780e+02
s_1_115 0
z_1_115 0
x_1_116 3.2417257598787546e+02
s_1_116 0
z_1_116 0
x_1_117 3.2064889201708138e+02
s_1_117 0
z_1_117 0
x_1_118 3.2076637354772538e+02
s_1_118 0
z_1_118 0
x_1_119 0
s_1_119 9.1408830837463029e-01
z_1_119 9.1408830837463027e-06
x_1_120 3.2270033794781193e+02
s_1_120 0
z_1_120 0
x_1_121 3.2419459546357393e+02
s_1_121 0
z_1_121 0
x_1_122 3.2357280735112727e+02
s_1_122 0
z_1_122 0
x_1_123 3.2403860874846578e+02
s_1_123 0
z_1_123 0
x_1_124 0
s_1_124 1.3470464786551020e+00
z_1_124 1.3470464786551019e-05
x_1_125 0
s_1_125 1.6617628209642135e+00
z_1_125 1.6617628209642133e-05
x_1_126 0
s_1_126 9.2352597211720422e-01
z_1_126 9.2352597211720428e-06
x_1_127 3.2209378227032721e+02
s_1_127 0
z_1_127 0
x_1_128 0
s_1_128 8.0567309248726815e-01
z_1_128 8.0567309248726822e-06
x_1_129 3.2274012370686978e+02
s_1_129 0
z_1_129 0
x_1_130 0
s_1_130 1.0237437324249186e+00
z_1_130 1.0237437324249185e-05
x_1_131 4.9999191365770588e+04
s_1_131 5.0000808634229412e+04
z_1_131 5.0000808634229410e-01
x_1_132 0
s_1_132 1.1740316951763816e+00
z_1_132 1.1740316951763816e-05
x_1_133 3.2492272324999794e+02
s_1_133 0
z_1_133 0
x_1_134 3.2316336864093319e+02
s_1_134 0
z_1_134 0
x_1_135 0
s_1_135 1.8820371530018747e+00
z_1_135 1.8820371530018748e-05
x_1_136 0
s_1_136 1.6599387477326673e+00
z_1_136 1.6599387477326671e-05
x_1_137 3.2051185261970386e+02
s_1_137 0
z_1_137 0
x_1_138 3.2434501064755023e+02
s_1_138 0
z_1_138 0
x_1_139 0
s_1_139 1.5275051750941202e+00
z_1_139 1.52750517509412e-05
x_1_140 3.2174824013747275e+02
s_1_140 0
z_1_140 0
x_1_141 3.2074693949520588e+02
s_1_141 0
z_1_141 0
x_1_142 0
s_1_142 1.1433495498786215e+00
z_1_142 1.1433495498786215e-05
x_1_143 0
s_1_143 1.0836955128470436e+00
z_1_143 1.0836955128470436e-05
x_1_144 3.2217534091323614e+02
s_1_144 0
z_1_144 0
x_1_145 3.2217524517647689e+02
s_1_145 0
z_1_145 0
x_1_146 0
s_1_146 1.2298359694977989e+00
z_1_146 1.2298359694977989e-05
x_1_147 0
s_1_147 1.5777101472776849e+00
z_1_147 1.5777101472776848e-05
x_1_148 0
s_1_148 1.2397073386528064e+00
z_1_148 1.2397073386528064e-05
x_1_149 3.2150352949532680e+02
s_1_149 0
z_1_149 0
x_1_150 4.9998805429051456e+04
s_1_150 5.0001194570948544e+04
z_1_150 5.0001194570948548e-01
x_1_151 0
s_1_151 2.1074815672764089e+00
z_1_151 2.1074815672764088e-05
x_1_152 3.2264318093383918e+02
s_1_152 0
z_1_152 0
x_1_153 3.2269269446562976e+02
s_1_153 0
z_1_153 0
x_1_154 0
s_1_154 1.3675116145241191e+00
z_1_154 1.3675116145241191e-05
x_1_155 0
s_1_155 1.8177195586031303e+00
z_1_155 1.8177195586031304e-05
x_1_156 3.2468371369154193e+02
s_1_156 0
z_1_156 0
x_1_157 4.9999230615018634e+04
s_1_157 5.0000769384981366e+04
z_1_157 5.0000769384981369e-01
x_1_158 0
s_1_158 1.3813437416974921e+00
z_1_158 1.3813437416974921e-05
x_1_159 0
s_1_159 1.0634947469225153e+00
z_1_159 1.0634947469225154e-05
x_2_0 1.5625728712174325e+05
